Maximize
    5000 x1m + 4000 x1a + 1800 x1f +
    5000 x2m + 4000 x2a + 1800 x2f +
    5000 x3m + 4000 x3a + 1800 x3f
Subject To
    x1m + x1a + x1f <= 400
    x2m + x2a + x2f <= 650
    x3m + x3a + x3f <= 350

    5.5 x1m + 4 x1a + 3.5 x1f <= 1800
    5.5 x2m + 4 x2a + 3.5 x2f <= 2200
    5.5 x3m + 4 x3a + 3.5 x3f <=  950

    x1m + x2m + x3m <= 660
    x1a + x2a + x3a <= 880
    x1f + x2f + x3f <= 400

    0.0025      x1m + 0.0025      x1a + 0.0025      x1f - 0.001538462 x2m - 0.001538462 x2a - 0.001538462 x2f = 0
    0.001538462 x2m + 0.001538462 x2a + 0.001538462 x2f - 0.002857143 x3m - 0.002857143 x3a - 0.002857143 x3f = 0
Bounds
    x1m >= 0
    x1a >= 0
    x1f >= 0
    x2m >= 0
    x2a >= 0
    x2f >= 0
    x3m >= 0
    x3a >= 0
    x3f >= 0
End
